(set-logic BV) (define-fun origCir ((i_7 Bool) (i_15 Bool) (i_8 Bool) (i_16 Bool) (i_17 Bool) (i_9 Bool)) Bool (xor (and (not (xor (xor (and i_16 i_8) i_7) i_15)) (and (xor i_16 i_8) (and i_17 i_9))) (and (xor i_16 i_8) (and i_17 i_9)))) (synth-fun skel ((i_7 Bool) (i_15 Bool) (i_8 Bool) (i_16 Bool) (i_17 Bool) (i_9 Bool)) Bool) (declare-var i_7 Bool) (declare-var i_15 Bool) (declare-var i_8 Bool) (declare-var i_16 Bool) (declare-var i_17 Bool) (declare-var i_9 Bool) (constraint (= (origCir i_7 i_15 i_8 i_16 i_17 i_9) (skel i_7 i_15 i_8 i_16 i_17 i_9))) (check-synth)
